NAME : XML50_2173_03
COMMENT : Generated as the XML100 dataset from the CVRPLIB
TYPE : CVRP
DIMENSION : 51
EDGE_WEIGHT_TYPE : EUC_2D
CAPACITY : 149
NODE_COORD_SECTION
1    500  500 
2    616  155 
3    522  255 
4    19   464 
5    747  791 
6    954  495 
7    469  334 
8    310  170 
9    426  516 
10   217  522 
11   116  677 
12   266  716 
13   94   256 
14   642  994 
15   261  744 
16   582  647 
17   212  702 
18   841  489 
19   83   716 
20   268  148 
21   734  323 
22   627  856 
23   319  291 
24   289  12  
25   393  759 
26   224  810 
27   58   24  
28   920  815 
29   883  55  
30   22   580 
31   799  125 
32   54   60  
33   618  834 
34   503  517 
35   789  362 
36   493  992 
37   61   169 
38   986  705 
39   930  624 
40   196  409 
41   171  56  
42   76   111 
43   802  838 
44   387  653 
45   478  652 
46   46   668 
47   460  88  
48   835  584 
49   413  391 
50   925  889 
51   186  632 
DEMAND_SECTION
1    0   
2    98  
3    3   
4    1   
5    8   
6    94  
7    4   
8    6   
9    75  
10   53  
11   6   
12   3   
13   10  
14   8   
15   6   
16   9   
17   9   
18   6   
19   5   
20   2   
21   3   
22   8   
23   5   
24   7   
25   4   
26   10  
27   60  
28   4   
29   8   
30   88  
31   1   
32   2   
33   9   
34   10  
35   4   
36   2   
37   76  
38   9   
39   7   
40   10  
41   6   
42   7   
43   9   
44   10  
45   10  
46   9   
47   9   
48   2   
49   1   
50   6   
51   3   
DEPOT_SECTION
1
-1
EOF
